decision_x1=[0,4];
decision_x2=[0,4];
decision_x3=[0,4];
decision_x4=[0,4];
decision_x5=[0,4];
decision_x6=[0,4];
decision_x7=[0,4];
decision_x8=[0,4];
random_y1=[0,4];
random_y2=[0,4];
random_y3=[0,4];
random_y4=[0,4];
constraint_x2_x1=[
0,1,3.6|
0,2,2.2|
0,3,7.1|
0,4,9.3|
1,0,4|
1,2,9.3|
1,3,3.3|
1,4,5.9|
2,0,4.1|
2,1,3.6|
2,3,4.1|
2,4,7.8|
3,0,9.2|
3,1,9.8|
3,2,5.8|
3,4,7.9|
4,0,5.4|
4,1,2.5|
4,2,1.7|
4,3,0.46|
];
constraint_x3_x1=[
0,1,6.4|
0,2,3.8|
0,3,7.6|
0,4,3.1|
1,0,4.4|
1,2,1.8|
1,3,6.4|
1,4,6.7|
2,0,5.3|
2,1,6.3|
2,3,0.78|
2,4,6.3|
3,0,7.4|
3,1,9|
3,2,3.5|
3,4,1.8|
4,0,9.1|
4,1,7.8|
4,2,4.7|
4,3,3.3|
];
constraint_x4_x1=[
0,1,4.5|
0,2,5.3|
0,3,6.9|
0,4,8.5|
1,0,1.6|
1,2,4.2|
1,3,1.8|
1,4,9.4|
2,0,6|
2,1,3.1|
2,3,1.6|
2,4,7.4|
3,0,6.8|
3,1,8.3|
3,2,7.8|
3,4,2.7|
4,0,0.11|
4,1,5.1|
4,2,4.8|
4,3,0.38|
];
constraint_x4_x2=[
0,1,0.87|
0,2,0.37|
0,3,0.57|
0,4,5.6|
1,0,1.3|
1,2,1.2|
1,3,4.8|
1,4,0.81|
2,0,4.5|
2,1,7.3|
2,3,3.4|
2,4,7.8|
3,0,0.85|
3,1,7.8|
3,2,9.2|
3,4,6.3|
4,0,9|
4,1,8.3|
4,2,6.7|
4,3,1.9|
];
constraint_x5_x3=[
0,1,9.4|
0,2,9|
0,3,9.4|
0,4,2.1|
1,0,0.098|
1,2,7|
1,3,8.3|
1,4,4.7|
2,0,8|
2,1,3.6|
2,3,3.3|
2,4,7.5|
3,0,8.6|
3,1,0.53|
3,2,7.3|
3,4,4.2|
4,0,2.2|
4,1,6.4|
4,2,8.8|
4,3,7.4|
];
constraint_x6_x3=[
0,1,3.9|
0,2,9|
0,3,0.92|
0,4,8.7|
1,0,2|
1,2,7|
1,3,3.6|
1,4,3.7|
2,0,6.6|
2,1,2.8|
2,3,3.8|
2,4,7.1|
3,0,3.2|
3,1,3.2|
3,2,3.5|
3,4,9.5|
4,0,0.65|
4,1,2|
4,2,2.7|
4,3,9.5|
];
constraint_x6_x4=[
0,1,7.8|
0,2,5.8|
0,3,7.1|
0,4,0.61|
1,0,8.2|
1,2,8.7|
1,3,1.5|
1,4,7.2|
2,0,4|
2,1,7.8|
2,3,2.2|
2,4,2.6|
3,0,5.3|
3,1,9.4|
3,2,1.9|
3,4,3.9|
4,0,9.3|
4,1,2.5|
4,2,7.9|
4,3,8.7|
];
constraint_x6_x5=[
0,1,7.9|
0,2,4.2|
0,3,9.1|
0,4,1.9|
1,0,9.7|
1,2,8.2|
1,3,7.6|
1,4,3.7|
2,0,2.4|
2,1,8.3|
2,3,5.2|
2,4,6.3|
3,0,3.7|
3,1,8.1|
3,2,8.2|
3,4,1.8|
4,0,9.3|
4,1,3.2|
4,2,9.8|
4,3,1.4|
];
constraint_x7_x1=[
0,1,8|
0,2,5.9|
0,3,0.34|
0,4,7|
1,0,1.6|
1,2,0.43|
1,3,4.3|
1,4,8.3|
2,0,8.3|
2,1,7.2|
2,3,0.16|
2,4,3.3|
3,0,5.6|
3,1,0.78|
3,2,5.5|
3,4,5.7|
4,0,5.3|
4,1,5.7|
4,2,0.22|
4,3,4|
];
constraint_x7_x4=[
0,1,3.5|
0,2,0.38|
0,3,5.3|
0,4,3.1|
1,0,9.8|
1,2,2.1|
1,3,3.9|
1,4,1.2|
2,0,8|
2,1,0.82|
2,3,3.1|
2,4,5.1|
3,0,2.2|
3,1,0.95|
3,2,5.2|
3,4,7.5|
4,0,1.3|
4,1,9.4|
4,2,9.9|
4,3,7.7|
];
constraint_x7_x6=[
0,1,1.5|
0,2,0.3|
0,3,4.5|
0,4,3.4|
1,0,9.6|
1,2,2.6|
1,3,9.9|
1,4,7.6|
2,0,7.2|
2,1,5.2|
2,3,5.7|
2,4,9.4|
3,0,7.5|
3,1,0.73|
3,2,1.4|
3,4,6.7|
4,0,0.88|
4,1,0.028|
4,2,9.6|
4,3,0.65|
];
constraint_x8_x1=[
0,1,4.8|
0,2,9.7|
0,3,1.3|
0,4,4.6|
1,0,6.8|
1,2,4.2|
1,3,3.8|
1,4,6.8|
2,0,9.3|
2,1,7.1|
2,3,0.2|
2,4,8.6|
3,0,0.48|
3,1,2|
3,2,1|
3,4,6.8|
4,0,8.9|
4,1,7.5|
4,2,4.7|
4,3,3.5|
];
constraint_x8_x3=[
0,1,8.6|
0,2,8.2|
0,3,1.1|
0,4,6.7|
1,0,1.5|
1,2,7.3|
1,3,1.9|
1,4,8.1|
2,0,1.5|
2,1,5.3|
2,3,6.7|
2,4,7.6|
3,0,4.8|
3,1,3.3|
3,2,6.6|
3,4,6.2|
4,0,3|
4,1,7.4|
4,2,1.9|
4,3,8.7|
];
constraint_x8_x6=[
0,1,3.8|
0,2,8.1|
0,3,1.6|
0,4,5.3|
1,0,7.6|
1,2,8|
1,3,9.8|
1,4,1.2|
2,0,4.9|
2,1,2.2|
2,3,1.1|
2,4,0.52|
3,0,0.43|
3,1,8.9|
3,2,7.9|
3,4,5.7|
4,0,2.1|
4,1,1.8|
4,2,4|
4,3,4.4|
];
constraint_x1_y1=[
0,0,6.1|
0,1,4.7|
0,2,6.8|
0,3,0.21|
0,4,9.5|
1,0,10|
1,1,2.4|
1,2,6.1|
1,3,7.3|
1,4,9.5|
2,0,0.12|
2,1,0.28|
2,2,4.1|
2,3,5.4|
2,4,1.7|
3,0,9|
3,1,7.7|
3,2,3.8|
3,3,1.8|
3,4,5.4|
4,0,1.7|
4,1,0.58|
4,2,2.2|
4,3,9.4|
4,4,5.5|
];
constraint_x2_y2=[
0,0,1|
0,1,8.3|
0,2,4.2|
0,3,6.3|
0,4,6|
1,0,9.3|
1,1,1.1|
1,2,6|
1,3,0.37|
1,4,5.4|
2,0,6.3|
2,1,1.7|
2,2,4.9|
2,3,7.2|
2,4,1.2|
3,0,9.2|
3,1,3|
3,2,3.8|
3,3,1.9|
3,4,7.7|
4,0,9.9|
4,1,8.4|
4,2,9.3|
4,3,3.1|
4,4,3.1|
];
constraint_x3_y3=[
0,0,5.2|
0,1,5.2|
0,2,6.2|
0,3,2.4|
0,4,1.5|
1,0,0.49|
1,1,3.9|
1,2,3.6|
1,3,2|
1,4,9.4|
2,0,5.4|
2,1,2.6|
2,2,9.6|
2,3,9.8|
2,4,2.5|
3,0,7.7|
3,1,5.1|
3,2,5.4|
3,3,1.5|
3,4,4.4|
4,0,7.9|
4,1,1.7|
4,2,1.2|
4,3,4.6|
4,4,9.5|
];
constraint_x4_y4=[
0,0,3|
0,1,0.59|
0,2,3.3|
0,3,7.4|
0,4,5.7|
1,0,3.8|
1,1,8.4|
1,2,4.8|
1,3,8.4|
1,4,9.3|
2,0,1.3|
2,1,2.1|
2,2,2|
2,3,4.9|
2,4,4.6|
3,0,2.6|
3,1,7|
3,2,0.11|
3,3,7.5|
3,4,8.6|
4,0,0.5|
4,1,0.64|
4,2,3.5|
4,3,6.6|
4,4,8.4|
];
initial_distribution_y1=[0.14,0.17,0.35,0.18,0.15];
initial_distribution_y2=[0.11,0.3,0.24,0.074,0.27];
initial_distribution_y3=[0.041,0.054,0.085,0.63,0.19];
initial_distribution_y4=[0.23,0.24,0.09,0.37,0.067];
transition_y1=[
0.24,0.18,0.077,0.25,0.26|
0.26,0.17,0.16,0.26,0.14|
0.42,0.16,0.097,0.18,0.15|
0.02,0.4,0.057,0.4,0.12|
0.03,0.11,0.41,0.4,0.045|
];
transition_y2=[
0.3,0.35,0.3,0.025,0.025|
0.25,0.15,0.18,0.14,0.28|
0.31,0.42,0.034,0.12,0.11|
0.098,0.11,0.42,0.022,0.35|
0.32,0.12,0.14,0.22,0.19|
];
transition_y3=[
0.14,0.26,0.22,0.31,0.07|
0.041,0.11,0.52,0.16,0.17|
0.26,0.28,0.24,0.054,0.17|
0.024,0.16,0.29,0.24,0.28|
0.26,0.34,0.16,0.15,0.091|
];
transition_y4=[
0.29,0.22,0.24,0.13,0.13|
0.06,0.2,0.12,0.3,0.32|
0.17,0.043,0.39,0.12,0.28|
0.24,0.17,0.12,0.22,0.24|
0.034,0.25,0.32,0.38,0.02|
];
